c FILE: BspGraphGross.graph
c
c SOURCE: DAP2
c
p edge 30 103 
e 0 3
e 0 8
e 0 11
e 0 16
e 0 22
e 1 22
e 1 23
e 1 29
e 2 2
e 2 14
e 2 18
e 2 21
e 3 2
e 3 6
e 3 15
e 4 0
e 4 1
e 4 2
e 4 11
e 4 13
e 5 19
e 5 21
e 5 25
e 6 0
e 6 17
e 6 25
e 7 1
e 7 11
e 8 7
e 8 10
e 8 15
e 8 26
e 8 27
e 8 28
e 9 4
e 9 11
e 9 18
e 9 19
e 9 27
e 10 3
e 10 11
e 10 23
e 10 27
e 10 28
e 11 7
e 11 8
e 11 13
e 11 18
e 13 6
e 13 13
e 13 23
e 13 28
e 14 2
e 14 16
e 14 17
e 15 0
e 15 8
e 15 23
e 15 27
e 16 5
e 16 6
e 16 13
e 16 25
e 16 29
e 17 2
e 17 25
e 18 14
e 18 21
e 18 24
e 19 4
e 19 27
e 20 7
e 20 10
e 20 11
e 20 16
e 20 17
e 21 24
e 21 28
e 22 3
e 22 7
e 22 17
e 22 29
e 23 22
e 24 12
e 24 15
e 24 18
e 24 19
e 24 20
e 25 1
e 25 13
e 25 27
e 26 4
e 26 11
e 27 1
e 27 5
e 27 12
e 27 17
e 27 19
e 27 21
e 27 29
e 28 26
e 28 28
e 29 23